<number of tasks>
50

<cycle time>
1000

<order strength>
0.195


<task times>
1 589
2 440
3 571
4 570
5 576
6 706
7 375
8 640
9 658
10 518
11 529
12 556
13 476
14 360
15 509
16 685
17 379
18 499
19 633
20 237
21 528
22 761
23 494
24 555
25 473
26 482
27 582
28 476
29 764
30 595
31 346
32 419
33 665
34 706
35 371
36 528
37 498
38 733
39 379
40 460
41 312
42 307
43 357
44 381
45 635
46 357
47 435
48 535
49 571
50 499

<precedence relations>
1,11
2,10
4,7
4,8
4,9
5,6
6,13
6,18
7,14
7,17
7,18
7,20
8,15
9,16
9,43
11,12
11,36
12,23
13,32
15,49
16,20
17,19
17,21
17,22
20,44
21,25
21,29
21,44
22,48
23,24
23,26
23,27
23,28
23,39
24,33
25,34
26,30
28,35
29,31
29,32
31,36
31,37
31,38
33,37
33,42
34,39
34,40
34,43
34,48
35,41
36,46
37,43
37,45
40,50
41,49
42,44
42,47
42,48

<end>
